(set-logic ALL)
(set-option :produce-models true)
(declare-fun sym601 () String)
(declare-fun sym403 () String)
(declare-fun sym205 () String)
(declare-fun sym645 () String)
(declare-fun sym449 () String)
(declare-fun sym329 () String)
(declare-fun sym529 () String)
(declare-fun sym681 () String)
(declare-fun sym485 () String)
(declare-fun sym563 () String)
(declare-fun sym245 () String)
(declare-fun sym368 () String)
(declare-fun sym721 () String)
(declare-fun sym160 () String)
(declare-fun sym284 () String)
(declare-fun sym459 () String)
(declare-fun sym735 () String)
(declare-fun sym539 () String)
(declare-fun sym419 () String)
(declare-fun sym175 () String)
(declare-fun sym495 () String)
(declare-fun sym255 () String)
(declare-fun sym135 () String)
(declare-fun sym577 () String)
(declare-fun sym655 () String)
(declare-fun sym215 () String)
(declare-fun sym611 () String)
(declare-fun sym294 () String)
(declare-fun sym691 () String)
(declare-fun sym20 () String)
(declare-fun sym745 () String)
(declare-fun sym701 () String)
(declare-fun sym549 () String)
(declare-fun sym505 () String)
(declare-fun sym429 () String)
(declare-fun sym309 () String)
(declare-fun sym343 () String)
(declare-fun sym587 () String)
(declare-fun sym269 () String)
(declare-fun sym225 () String)
(declare-fun sym621 () String)
(declare-fun sym665 () String)
(declare-fun sym185 () String)
(declare-fun sym383 () String)
(declare-fun sym711 () String)
(declare-fun sym755 () String)
(declare-fun sym635 () String)
(declare-fun sym515 () String)
(declare-fun sym439 () String)
(declare-fun sym319 () String)
(declare-fun sym475 () String)
(declare-fun sym113 () String)
(declare-fun sym235 () String)
(declare-fun sym358 () String)
(declare-fun sym150 () String)
(declare-fun sym393 () String)
(declare-fun sym195 () String)
(define-fun Alphabet () RegLan 
	(re.* (re.union (str.to_re "A") (str.to_re "B") (str.to_re "C") (str.to_re "D") (str.to_re "E") (str.to_re "F") (str.to_re "G") (str.to_re "H") (str.to_re "I") (str.to_re "J") (str.to_re "K") (str.to_re "L") (str.to_re "M") (str.to_re "N") (str.to_re "O") (str.to_re "P") (str.to_re "Q") (str.to_re "R") (str.to_re "S") (str.to_re "T") (str.to_re "U") (str.to_re "V") (str.to_re "W") (str.to_re "X") (str.to_re "Y") (str.to_re "Z") (str.to_re "a") (str.to_re "b") (str.to_re "c") (str.to_re "d") (str.to_re "e") (str.to_re "f") (str.to_re "g") (str.to_re "h") (str.to_re "i") (str.to_re "j") (str.to_re "k") (str.to_re "l") (str.to_re "m") (str.to_re "n") (str.to_re "o") (str.to_re "p") (str.to_re "q") (str.to_re "r") (str.to_re "s") (str.to_re "t") (str.to_re "u") (str.to_re "v") (str.to_re "w") (str.to_re "x") (str.to_re "y") (str.to_re "z") ))
)

(assert (str.in_re sym195 Alphabet))
(assert (str.in_re sym393 Alphabet))
(assert (str.in_re sym150 Alphabet))
(assert (str.in_re sym358 Alphabet))
(assert (str.in_re sym235 Alphabet))
(assert (str.in_re sym113 Alphabet))
(assert (str.in_re sym475 Alphabet))
(assert (str.in_re sym319 Alphabet))
(assert (str.in_re sym439 Alphabet))
(assert (str.in_re sym515 Alphabet))
(assert (str.in_re sym635 Alphabet))
(assert (str.in_re sym755 Alphabet))
(assert (str.in_re sym711 Alphabet))
(assert (str.in_re sym383 Alphabet))
(assert (str.in_re sym185 Alphabet))
(assert (str.in_re sym665 Alphabet))
(assert (str.in_re sym621 Alphabet))
(assert (str.in_re sym225 Alphabet))
(assert (str.in_re sym269 Alphabet))
(assert (str.in_re sym587 Alphabet))
(assert (str.in_re sym343 Alphabet))
(assert (str.in_re sym309 Alphabet))
(assert (str.in_re sym429 Alphabet))
(assert (str.in_re sym505 Alphabet))
(assert (str.in_re sym549 Alphabet))
(assert (str.in_re sym701 Alphabet))
(assert (str.in_re sym745 Alphabet))
(assert (str.in_re sym20 Alphabet))
(assert (str.in_re sym691 Alphabet))
(assert (str.in_re sym294 Alphabet))
(assert (str.in_re sym611 Alphabet))
(assert (str.in_re sym215 Alphabet))
(assert (str.in_re sym655 Alphabet))
(assert (str.in_re sym577 Alphabet))
(assert (str.in_re sym135 Alphabet))
(assert (str.in_re sym255 Alphabet))
(assert (str.in_re sym495 Alphabet))
(assert (str.in_re sym175 Alphabet))
(assert (str.in_re sym419 Alphabet))
(assert (str.in_re sym539 Alphabet))
(assert (str.in_re sym735 Alphabet))
(assert (str.in_re sym459 Alphabet))
(assert (str.in_re sym284 Alphabet))
(assert (str.in_re sym160 Alphabet))
(assert (str.in_re sym721 Alphabet))
(assert (str.in_re sym368 Alphabet))
(assert (str.in_re sym245 Alphabet))
(assert (str.in_re sym563 Alphabet))
(assert (str.in_re sym485 Alphabet))
(assert (str.in_re sym681 Alphabet))
(assert (str.in_re sym529 Alphabet))
(assert (str.in_re sym329 Alphabet))
(assert (str.in_re sym449 Alphabet))
(assert (str.in_re sym645 Alphabet))
(assert (str.in_re sym205 Alphabet))
(assert (str.in_re sym403 Alphabet))
(assert (str.in_re sym601 Alphabet))
(assert (not (= (str.to_lower sym475 )(str.to_lower "name" ))))
(assert (not (= (str.to_lower sym485 )(str.to_lower "description" ))))
(assert (not (= (str.to_lower sym235 )(str.to_lower "name" ))))
(assert (not (= (str.to_lower sym185 )(str.to_lower "description" ))))
(assert (not (= (str.to_lower sym711 )(str.to_lower "length" ))))
(assert (not (= (str.to_lower sym601 )(str.to_lower "name" ))))
(assert (= (str.to_lower sym160 )(str.to_lower "description" )))
(assert (= (str.to_lower sym587 )(str.to_lower "description" )))
(assert (not (= (str.to_lower sym245 )(str.to_lower "description" ))))
(assert (not (= (str.to_lower sym735 )(str.to_lower "name" ))))
(assert (= (str.to_lower sym269 )(str.to_lower "name" )))
(assert (= (str.to_lower sym135 )(str.to_lower "name" )))
(assert (not (= (str.to_lower sym539 )(str.to_lower "description" ))))
(assert (= (str.to_lower sym549 )(str.to_lower "field" )))
(assert (not (= (str.to_lower sym577 )(str.to_lower "name" ))))
(assert (not (= (str.to_lower sym20 )"sql" )))
(assert (= (str.to_lower sym403 )(str.to_lower "type" )))
(assert (not (= (str.to_lower sym755 )(str.to_lower "field" ))))
(assert (not (= (str.to_lower sym150 )(str.to_lower "name" ))))
(assert (= (str.to_lower sym329 )(str.to_lower "field" )))
(assert (not (= (str.to_lower sym205 )(str.to_lower "name" ))))
(assert (not (= (str.to_lower sym393 )(str.to_lower "description" ))))
(assert (not (= (str.to_lower sym439 )(str.to_lower "type" ))))
(assert (not (= (str.to_lower sym681 )(str.to_lower "name" ))))
(assert (= (str.to_lower sym294 )(str.to_lower "description" )))
(assert (not (= (str.to_lower sym449 )(str.to_lower "length" ))))
(assert (= (str.to_lower sym343 )(str.to_lower "name" )))
(assert (= (str.to_lower sym721 )(str.to_lower "option" )))
(assert (not (= (str.to_lower sym383 )(str.to_lower "name" ))))
(assert (not (= (str.to_lower sym645 )(str.to_lower "description" ))))
(assert (= (str.to_lower sym20 )"html" ))
(assert (not (= (str.to_lower sym655 )(str.to_lower "type" ))))
(assert (not (= (str.to_lower sym505 )(str.to_lower "length" ))))
(assert (not (= (str.to_lower sym635 )(str.to_lower "name" ))))
(assert (not (= (str.to_lower sym225 )(str.to_lower "table" ))))
(assert (not (= (str.to_lower sym429 )(str.to_lower "description" ))))
(assert (not (= (str.to_lower sym309 )(str.to_lower "name" ))))
(assert (= (str.to_lower sym515 )(str.to_lower "option" )))
(assert (= (str.to_lower sym621 )(str.to_lower "type" )))
(assert (not (= (str.to_lower sym319 )(str.to_lower "description" ))))
(assert (not (= (str.to_lower sym358 )(str.to_lower "name" ))))
(assert (= (str.to_lower sym459 )(str.to_lower "option" )))
(assert (= (str.to_lower sym368 )(str.to_lower "description" )))
(assert (not (= (str.to_lower sym529 )(str.to_lower "name" ))))
(assert (not (= (str.to_lower sym195 )(str.to_lower "table" ))))
(assert (= (str.to_lower sym113 )(str.to_lower "database" )))
(assert (not (= (str.to_lower sym284 )(str.to_lower "name" ))))
(assert (not (= (str.to_lower sym215 )(str.to_lower "description" ))))
(assert (= (str.to_lower sym255 )(str.to_lower "table" )))
(assert (= (str.to_lower sym563 )(str.to_lower "name" )))
(assert (= (str.to_lower sym665 )(str.to_lower "length" )))
(assert (not (= (str.to_lower sym745 )(str.to_lower "description" ))))
(assert (not (= (str.to_lower sym691 )(str.to_lower "description" ))))
(assert (not (= (str.to_lower sym495 )(str.to_lower "type" ))))
(assert (not (= (str.to_lower sym419 )(str.to_lower "name" ))))
(assert (not (= (str.to_lower sym175 )(str.to_lower "name" ))))
(assert (not (= (str.to_lower sym611 )(str.to_lower "description" ))))
(assert (not (= (str.to_lower sym701 )(str.to_lower "type" ))))
(check-sat)
(get-model)
(exit)
